letting n =  10
letting blocks =  [[1, 4], [1, 7], [2, 2], [2, 4], [2, 6], [3, 1], [3, 8], [3, 9], [4, 2], [4, 3], [4, 8], [5, 6], [5, 8], [5, 9], [6, 3], [6, 4], [6, 5], [6, 7], [6, 8], [7, 3], [7, 5], [8, 8], [8, 10], [9, 6], [9, 9], [10, 7]]
